; PUSH cw_3 SWAP2 SWAP1 PUSH cw_2 SWAP1 => PUSH cw_2 PUSH cw_3 SWAP3 SWAP2
(set-option :produce-proofs true)
; 
(set-info :status unknown)
(declare-fun storage_t ((_ BitVec 256) (_ BitVec 256) (_ BitVec 256) (_ BitVec 256) Int (_ BitVec 256)) (_ BitVec 256))
(declare-fun w_2 () (_ BitVec 256))
(declare-fun w_3 () (_ BitVec 256))
(declare-fun storage_s ((_ BitVec 256) (_ BitVec 256) (_ BitVec 256) (_ BitVec 256) Int (_ BitVec 256)) (_ BitVec 256))
(declare-fun exc_halt_t (Int) Bool)
(declare-fun exc_halt_s (Int) Bool)
(declare-fun stack_t ((_ BitVec 256) (_ BitVec 256) (_ BitVec 256) (_ BitVec 256) Int (_ BitVec 6)) (_ BitVec 256))
(declare-fun stack_s ((_ BitVec 256) (_ BitVec 256) (_ BitVec 256) (_ BitVec 256) Int (_ BitVec 6)) (_ BitVec 256))
(declare-fun sc_t (Int) (_ BitVec 6))
(declare-fun sc_s (Int) (_ BitVec 6))
(declare-fun used_gas_t ((_ BitVec 256) (_ BitVec 256) (_ BitVec 256) (_ BitVec 256) Int) Int)
(declare-fun used_gas_s ((_ BitVec 256) (_ BitVec 256) (_ BitVec 256) (_ BitVec 256) Int) Int)
(assert
 (exists ((x_0 (_ BitVec 256)) (x_1 (_ BitVec 256)) )(let (($x935 (forall ((w (_ BitVec 256)) )(let ((?x10134 (storage_t x_0 x_1 w_3 w_2 4 w)))
 (let ((?x11552 (storage_s x_0 x_1 w_3 w_2 5 w)))
 (= ?x11552 ?x10134))))
 ))
 (let (($x7854 (exc_halt_t 4)))
 (let (($x11317 (exc_halt_s 5)))
 (let (($x1039 (= $x11317 $x7854)))
 (let (($x1979 (forall ((n (_ BitVec 6)) )(let ((?x2726 (stack_t x_0 x_1 w_3 w_2 4 n)))
 (let ((?x9553 (stack_s x_0 x_1 w_3 w_2 5 n)))
 (let (($x11364 (= ?x9553 ?x2726)))
 (let ((?x4818 (sc_t 4)))
 (let (($x5613 (bvsle ?x4818 n)))
 (or $x5613 $x11364)))))))
 ))
 (let ((?x4818 (sc_t 4)))
 (let ((?x4319 (sc_s 5)))
 (let (($x11850 (= ?x4319 ?x4818)))
 (let ((?x362 (used_gas_t x_0 x_1 w_3 w_2 0)))
 (let ((?x8449 (used_gas_s x_0 x_1 w_3 w_2 0)))
 (let (($x9460 (= ?x8449 ?x362)))
 (let (($x10052 (forall ((w (_ BitVec 256)) )(let ((?x7239 (storage_t x_0 x_1 w_3 w_2 0 w)))
 (let ((?x4884 (storage_s x_0 x_1 w_3 w_2 0 w)))
 (= ?x4884 ?x7239))))
 ))
 (let (($x56 (exc_halt_t 0)))
 (let (($x57 (exc_halt_s 0)))
 (let (($x58 (= $x57 $x56)))
 (let (($x437 (forall ((n (_ BitVec 6)) )(let ((?x1590 (stack_t x_0 x_1 w_3 w_2 0 n)))
 (let ((?x7489 (stack_s x_0 x_1 w_3 w_2 0 n)))
 (let (($x5535 (= ?x7489 ?x1590)))
 (let ((?x63 (sc_t 0)))
 (let (($x4174 (bvsle ?x63 n)))
 (or $x4174 $x5535)))))))
 ))
 (let ((?x63 (sc_t 0)))
 (let ((?x72 (sc_s 0)))
 (let (($x73 (= ?x72 ?x63)))
 (let (($x7451 (= $x7854 (or (exc_halt_t 3) (not (bvsle (_ bv0 6) (bvadd (_ bv61 6) (sc_t 3))))))))
 (let (($x722 (forall ((w (_ BitVec 256)) )(let ((?x8406 (storage_t x_0 x_1 w_3 w_2 3 w)))
 (let ((?x10134 (storage_t x_0 x_1 w_3 w_2 4 w)))
 (= ?x10134 ?x8406))))
 ))
 (let (($x829 (forall ((n (_ BitVec 6)) )(let ((?x3739 (stack_t x_0 x_1 w_3 w_2 3 n)))
 (let ((?x2726 (stack_t x_0 x_1 w_3 w_2 4 n)))
 (or (= ?x2726 ?x3739) (bvsle (bvadd (_ bv61 6) (sc_t 3)) n)))))
 ))
 (let ((?x11304 (sc_t 3)))
 (let (($x5005 (= ?x4818 ?x11304)))
 (let (($x3197 (= (used_gas_t x_0 x_1 w_3 w_2 4) (+ 3 (used_gas_t x_0 x_1 w_3 w_2 3)))))
 (let ((?x8617 (bvadd (_ bv62 6) ?x11304)))
 (let ((?x6146 (stack_t x_0 x_1 w_3 w_2 3 ?x8617)))
 (let ((?x7316 (bvadd (_ bv63 6) ?x11304)))
 (let ((?x10059 (stack_t x_0 x_1 w_3 w_2 3 ?x7316)))
 (let ((?x2650 (bvadd (_ bv61 6) ?x11304)))
 (let ((?x4840 (stack_t x_0 x_1 w_3 w_2 3 ?x2650)))
 (let (($x3614 (exc_halt_t 3)))
 (let (($x6172 (= $x3614 (or (exc_halt_t 2) (not (bvsle (_ bv0 6) (bvadd (_ bv60 6) (sc_t 2))))))))
 (let (($x7641 (forall ((w (_ BitVec 256)) )(let ((?x9893 (storage_t x_0 x_1 w_3 w_2 2 w)))
 (let ((?x8406 (storage_t x_0 x_1 w_3 w_2 3 w)))
 (= ?x8406 ?x9893))))
 ))
 (let (($x6140 (forall ((n (_ BitVec 6)) )(let ((?x7293 (stack_t x_0 x_1 w_3 w_2 2 n)))
 (let ((?x3739 (stack_t x_0 x_1 w_3 w_2 3 n)))
 (or (= ?x3739 ?x7293) (bvsle (bvadd (_ bv60 6) (sc_t 2)) n)))))
 ))
 (let ((?x6158 (sc_t 2)))
 (let (($x6230 (= ?x11304 ?x6158)))
 (let ((?x5389 (used_gas_t x_0 x_1 w_3 w_2 3)))
 (let (($x6981 (= (stack_t x_0 x_1 w_3 w_2 3 (bvadd (_ bv60 6) ?x11304)) (stack_t x_0 x_1 w_3 w_2 2 (bvadd (_ bv63 6) ?x6158)))))
 (let (($x10144 (not (= ((_ extract 6 6) (bvadd (_ bv1 7) (concat (_ bv0 1) (sc_t 1)))) (_ bv0 1)))))
 (let (($x8377 (exc_halt_t 1)))
 (let (($x11434 (exc_halt_t 2)))
 (let (($x2267 (= $x11434 (or $x8377 $x10144))))
 (let (($x8007 (forall ((w (_ BitVec 256)) )(let ((?x4040 (storage_t x_0 x_1 w_3 w_2 1 w)))
 (let ((?x9893 (storage_t x_0 x_1 w_3 w_2 2 w)))
 (= ?x9893 ?x4040))))
 ))
 (let (($x6607 (forall ((n (_ BitVec 6)) )(let ((?x7154 (sc_t 1)))
 (let (($x5538 (bvsle ?x7154 n)))
 (let ((?x2245 (stack_t x_0 x_1 w_3 w_2 1 n)))
 (let ((?x7293 (stack_t x_0 x_1 w_3 w_2 2 n)))
 (or (= ?x7293 ?x2245) $x5538))))))
 ))
 (let (($x10587 (= ?x6158 (bvadd (_ bv1 6) (sc_t 1)))))
 (let ((?x7022 (used_gas_t x_0 x_1 w_3 w_2 2)))
 (let (($x7894 (= $x8377 (or $x56 (not (= ((_ extract 6 6) (bvadd (_ bv1 7) (concat (_ bv0 1) ?x63))) (_ bv0 1)))))))
 (let (($x6512 (forall ((w (_ BitVec 256)) )(let ((?x7239 (storage_t x_0 x_1 w_3 w_2 0 w)))
 (let ((?x4040 (storage_t x_0 x_1 w_3 w_2 1 w)))
 (= ?x4040 ?x7239))))
 ))
 (let (($x709 (forall ((n (_ BitVec 6)) )(let ((?x1590 (stack_t x_0 x_1 w_3 w_2 0 n)))
 (let ((?x2245 (stack_t x_0 x_1 w_3 w_2 1 n)))
 (let ((?x63 (sc_t 0)))
 (let (($x4174 (bvsle ?x63 n)))
 (or $x4174 (= ?x2245 ?x1590)))))))
 ))
 (let ((?x7154 (sc_t 1)))
 (let (($x3399 (= ?x7154 (bvadd (_ bv1 6) ?x63))))
 (let (($x3049 (= $x11317 (or (exc_halt_s 4) (not (bvsle (_ bv0 6) (bvadd (_ bv62 6) (sc_s 4))))))))
 (let (($x4617 (forall ((w (_ BitVec 256)) )(let ((?x1185 (storage_s x_0 x_1 w_3 w_2 4 w)))
 (let ((?x11552 (storage_s x_0 x_1 w_3 w_2 5 w)))
 (= ?x11552 ?x1185))))
 ))
 (let (($x1308 (forall ((n (_ BitVec 6)) )(let ((?x4305 (sc_s 4)))
 (let ((?x6763 (bvadd (_ bv62 6) ?x4305)))
 (let (($x1677 (bvsle ?x6763 n)))
 (let ((?x6861 (stack_s x_0 x_1 w_3 w_2 4 n)))
 (let ((?x9553 (stack_s x_0 x_1 w_3 w_2 5 n)))
 (or (= ?x9553 ?x6861) $x1677)))))))
 ))
 (let ((?x4305 (sc_s 4)))
 (let (($x5283 (= ?x4319 ?x4305)))
 (let (($x50 (= (used_gas_s x_0 x_1 w_3 w_2 5) (+ 3 (used_gas_s x_0 x_1 w_3 w_2 4)))))
 (let (($x9464 (= (stack_s x_0 x_1 w_3 w_2 5 (bvadd (_ bv62 6) ?x4319)) (stack_s x_0 x_1 w_3 w_2 4 (bvadd (_ bv63 6) ?x4305)))))
 (let (($x5478 (= (stack_s x_0 x_1 w_3 w_2 5 (bvadd (_ bv63 6) ?x4319)) (stack_s x_0 x_1 w_3 w_2 4 (bvadd (_ bv62 6) ?x4305)))))
 (let (($x6280 (not (= ((_ extract 6 6) (bvadd (_ bv1 7) (concat (_ bv0 1) (sc_s 3)))) (_ bv0 1)))))
 (let (($x292 (exc_halt_s 3)))
 (let (($x7172 (exc_halt_s 4)))
 (let (($x6045 (= $x7172 (or $x292 $x6280))))
 (let (($x8103 (forall ((w (_ BitVec 256)) )(let ((?x6088 (storage_s x_0 x_1 w_3 w_2 3 w)))
 (let ((?x1185 (storage_s x_0 x_1 w_3 w_2 4 w)))
 (= ?x1185 ?x6088))))
 ))
 (let (($x7904 (forall ((n (_ BitVec 6)) )(let ((?x275 (sc_s 3)))
 (let (($x7088 (bvsle ?x275 n)))
 (let ((?x9008 (stack_s x_0 x_1 w_3 w_2 3 n)))
 (let ((?x6861 (stack_s x_0 x_1 w_3 w_2 4 n)))
 (or (= ?x6861 ?x9008) $x7088))))))
 ))
 (let (($x3014 (= ?x4305 (bvadd (_ bv1 6) (sc_s 3)))))
 (let ((?x836 (used_gas_s x_0 x_1 w_3 w_2 4)))
 (let (($x3850 (= $x292 (or (exc_halt_s 2) (not (bvsle (_ bv0 6) (bvadd (_ bv62 6) (sc_s 2))))))))
 (let (($x428 (forall ((w (_ BitVec 256)) )(let ((?x11592 (storage_s x_0 x_1 w_3 w_2 2 w)))
 (let ((?x6088 (storage_s x_0 x_1 w_3 w_2 3 w)))
 (= ?x6088 ?x11592))))
 ))
 (let (($x7645 (forall ((n (_ BitVec 6)) )(let ((?x218 (sc_s 2)))
 (let ((?x4488 (bvadd (_ bv62 6) ?x218)))
 (let (($x9325 (bvsle ?x4488 n)))
 (let ((?x4303 (stack_s x_0 x_1 w_3 w_2 2 n)))
 (let ((?x9008 (stack_s x_0 x_1 w_3 w_2 3 n)))
 (or (= ?x9008 ?x4303) $x9325)))))))
 ))
 (let ((?x218 (sc_s 2)))
 (let ((?x275 (sc_s 3)))
 (let (($x5887 (= ?x275 ?x218)))
 (let ((?x7591 (used_gas_s x_0 x_1 w_3 w_2 3)))
 (let ((?x8683 (bvadd (_ bv63 6) ?x218)))
 (let ((?x5001 (stack_s x_0 x_1 w_3 w_2 2 ?x8683)))
 (let ((?x4488 (bvadd (_ bv62 6) ?x218)))
 (let ((?x9936 (stack_s x_0 x_1 w_3 w_2 2 ?x4488)))
 (let (($x247 (exc_halt_s 2)))
 (let (($x7990 (= $x247 (or (exc_halt_s 1) (not (bvsle (_ bv0 6) (bvadd (_ bv61 6) (sc_s 1))))))))
 (let (($x968 (forall ((w (_ BitVec 256)) )(let ((?x666 (storage_s x_0 x_1 w_3 w_2 1 w)))
 (let ((?x11592 (storage_s x_0 x_1 w_3 w_2 2 w)))
 (= ?x11592 ?x666))))
 ))
 (let (($x10186 (forall ((n (_ BitVec 6)) )(let ((?x4634 (stack_s x_0 x_1 w_3 w_2 1 n)))
 (let ((?x4303 (stack_s x_0 x_1 w_3 w_2 2 n)))
 (let ((?x154 (sc_s 1)))
 (let ((?x7964 (bvadd (_ bv61 6) ?x154)))
 (let (($x96 (bvsle ?x7964 n)))
 (or $x96 (= ?x4303 ?x4634))))))))
 ))
 (let ((?x154 (sc_s 1)))
 (let (($x3954 (= ?x218 ?x154)))
 (let ((?x8837 (used_gas_s x_0 x_1 w_3 w_2 2)))
 (let (($x3803 (= (stack_s x_0 x_1 w_3 w_2 2 (bvadd (_ bv61 6) ?x218)) (stack_s x_0 x_1 w_3 w_2 1 (bvadd (_ bv63 6) ?x154)))))
 (let (($x189 (exc_halt_s 1)))
 (let (($x10431 (= $x189 (or $x57 (not (= ((_ extract 6 6) (bvadd (_ bv1 7) (concat (_ bv0 1) ?x72))) (_ bv0 1)))))))
 (let (($x281 (forall ((w (_ BitVec 256)) )(let ((?x4884 (storage_s x_0 x_1 w_3 w_2 0 w)))
 (let ((?x666 (storage_s x_0 x_1 w_3 w_2 1 w)))
 (= ?x666 ?x4884))))
 ))
 (let (($x1143 (forall ((n (_ BitVec 6)) )(let ((?x7489 (stack_s x_0 x_1 w_3 w_2 0 n)))
 (let ((?x4634 (stack_s x_0 x_1 w_3 w_2 1 n)))
 (let ((?x72 (sc_s 0)))
 (let (($x2932 (bvsle ?x72 n)))
 (or $x2932 (= ?x4634 ?x7489)))))))
 ))
 (let (($x6741 (= ?x154 (bvadd (_ bv1 6) ?x72))))
 (let (($x6668 (forall ((w (_ BitVec 256)) )(let ((?x4884 (storage_s x_0 x_1 w_3 w_2 0 w)))
 (= ?x4884 (_ bv0 256))))
 ))
 (let (($x6786 (= ?x8449 0)))
 (let (($x3561 (not $x57)))
 (let (($x9205 (= (stack_s x_0 x_1 w_3 w_2 0 (_ bv1 6)) x_1)))
 (let (($x7453 (= (stack_s x_0 x_1 w_3 w_2 0 (_ bv0 6)) x_0)))
 (let (($x11128 (= ?x72 (_ bv2 6))))
 (and $x11128 $x7453 $x9205 $x3561 $x6786 $x6668 (= (stack_s x_0 x_1 w_3 w_2 1 ?x72) w_3) (= (used_gas_s x_0 x_1 w_3 w_2 1) (+ 3 ?x8449)) $x6741 $x1143 $x281 $x10431 (= ?x5001 (stack_s x_0 x_1 w_3 w_2 1 (bvadd (_ bv61 6) ?x154))) $x3803 (= ?x9936 (stack_s x_0 x_1 w_3 w_2 1 (bvadd (_ bv62 6) ?x154))) (= ?x8837 (+ 3 (used_gas_s x_0 x_1 w_3 w_2 1))) $x3954 $x10186 $x968 $x7990 (= (stack_s x_0 x_1 w_3 w_2 3 (bvadd (_ bv63 6) ?x275)) ?x9936) (= (stack_s x_0 x_1 w_3 w_2 3 (bvadd (_ bv62 6) ?x275)) ?x5001) (= ?x7591 (+ 3 ?x8837)) $x5887 $x7645 $x428 $x3850 (= (stack_s x_0 x_1 w_3 w_2 4 ?x275) w_2) (= ?x836 (+ 3 ?x7591)) $x3014 $x7904 $x8103 $x6045 $x5478 $x9464 $x50 $x5283 $x1308 $x4617 $x3049 (= (stack_t x_0 x_1 w_3 w_2 1 ?x63) w_2) (= (used_gas_t x_0 x_1 w_3 w_2 1) (+ 3 ?x362)) $x3399 $x709 $x6512 $x7894 (= (stack_t x_0 x_1 w_3 w_2 2 ?x7154) w_3) (= ?x7022 (+ 3 (used_gas_t x_0 x_1 w_3 w_2 1))) $x10587 $x6607 $x8007 $x2267 (= ?x10059 (stack_t x_0 x_1 w_3 w_2 2 (bvadd (_ bv60 6) ?x6158))) $x6981 (= ?x4840 (stack_t x_0 x_1 w_3 w_2 2 (bvadd (_ bv61 6) ?x6158))) (= ?x6146 (stack_t x_0 x_1 w_3 w_2 2 (bvadd (_ bv62 6) ?x6158))) (= ?x5389 (+ 3 ?x7022)) $x6230 $x6140 $x7641 $x6172 (= (stack_t x_0 x_1 w_3 w_2 4 (bvadd (_ bv63 6) ?x4818)) ?x4840) (= (stack_t x_0 x_1 w_3 w_2 4 (bvadd (_ bv61 6) ?x4818)) ?x10059) (= (stack_t x_0 x_1 w_3 w_2 4 (bvadd (_ bv62 6) ?x4818)) ?x6146) $x3197 $x5005 $x829 $x722 $x7451 $x73 $x437 $x58 $x10052 $x9460 (not (and $x11850 $x1979 $x1039 $x935))))))))))))))))))))))))))))))))))))))))))))))))))))))))))))))))))))))))))))))))))))))))))))))))))))))
 )
(check-sat)
(get-proof)
